Route #1: 1 9 36 21 2 6 1
Route #2: 1 11 20 23 4 8 19 28 13 29 1
Route #3: 1 16 24 34 12 22 26 37 1
Route #4: 1 7 15 5 32 33 17 1
Route #5: 1 14 35 31 18 1
Route #6: 1 27 10 3 25 30 1
cost 1943.8283129054453